100 8
725 441
765 644
622 741
775 690
187 452
665 452
945 130
806 303
381 231
584 675
687 793
949 216
877 281
453 277
254 808
458 336
951 229
399 313
414 588
881 184
438 194
322 964
920 442
635 419
217 949
343 943
646 409
761 298
475 649
825 562
687 654
835 841
162 742
710 690
190 886
838 89
177 459
671 671
160 562
743 707
474 585
677 120
977 305
520 603
659 236
883 539
744 232
818 115
354 930
561 433
548 683
610 403
817 205
548 600
343 434
455 346
381 300
376 263
669 587
570 460
843 449
641 476
366 822
297 788
944 344
955 381
871 357
259 872
838 214
884 593
185 441
697 428
859 37
347 519
370 312
787 675
527 650
768 428
932 270
544 438
278 866
448 206
682 665
173 865
716 639
862 593
307 454
867 108
699 610
453 528
787 820
698 813
241 897
746 929
771 484
331 949
755 603
190 818
782 771
781 457
